NAME /Users/henri/Research/solvers/instances/idol-instances/robust/collection/cbp_Subramanyam_et_al_2020/CapBud_N20_19/models/uncertain_technology_matrix/
ROWS
 N  OBJ
 L  capacity
 L  c_3380
 L  c_3381
 L  c_3382
 L  c_3383
 L  c_3384
 L  c_3385
 L  c_3386
 L  c_3387
 L  c_3388
 L  c_3389
 L  c_3390
 L  c_3391
 L  c_3392
 L  c_3393
 L  c_3394
 L  c_3395
 L  c_3396
 L  c_3397
 L  c_3398
 L  c_3399
COLUMNS
    MARKER    'MARKER'                 'INTORG'
    x_0        OBJ        -2.18541
    x_0        c_3380     1
    x_0        capacity   0.437082
    x_1        OBJ        -0.782557
    x_1        c_3381     1
    x_1        capacity   0.156511
    x_2        OBJ        -8.46919
    x_2        c_3382     1
    x_2        capacity   1.69384
    x_3        OBJ        -8.42858
    x_3        c_3383     1
    x_3        capacity   1.68572
    x_4        OBJ        -5.58735
    x_4        c_3384     1
    x_4        capacity   1.11747
    x_5        OBJ        -5.10547
    x_5        c_3385     1
    x_5        capacity   1.02109
    x_6        OBJ        -0.00656036
    x_6        c_3386     1
    x_6        capacity   0.00131207
    x_7        OBJ        -2.57489
    x_7        c_3387     1
    x_7        capacity   0.514978
    x_8        OBJ        -8.8666
    x_8        c_3388     1
    x_8        capacity   1.77332
    x_9        OBJ        -6.70445
    x_9        c_3389     1
    x_9        capacity   1.34089
    x_10       OBJ        -3.28626
    x_10       c_3390     1
    x_10       capacity   0.657251
    x_11       OBJ        -0.859767
    x_11       c_3391     1
    x_11       capacity   0.171953
    x_12       OBJ        -9.44564
    x_12       c_3392     1
    x_12       capacity   1.88913
    x_13       OBJ        -5.36762
    x_13       c_3393     1
    x_13       capacity   1.07352
    x_14       OBJ        -8.04438
    x_14       c_3394     1
    x_14       capacity   1.60888
    x_15       OBJ        -9.47679
    x_15       c_3395     1
    x_15       capacity   1.89536
    x_16       OBJ        -5.00542
    x_16       c_3396     1
    x_16       capacity   1.00108
    x_17       OBJ        -9.82114
    x_17       c_3397     1
    x_17       capacity   1.96423
    x_18       OBJ        -8.81585
    x_18       c_3398     1
    x_18       capacity   1.76317
    x_19       OBJ        -6.71356
    x_19       c_3399     1
    x_19       capacity   1.34271
    y_0        OBJ        -1.74833
    y_0        c_3380     1
    y_0        capacity   0.437082
    y_1        OBJ        -0.626046
    y_1        c_3381     1
    y_1        capacity   0.156511
    y_2        OBJ        -6.77535
    y_2        c_3382     1
    y_2        capacity   1.69384
    y_3        OBJ        -6.74286
    y_3        c_3383     1
    y_3        capacity   1.68572
    y_4        OBJ        -4.46988
    y_4        c_3384     1
    y_4        capacity   1.11747
    y_5        OBJ        -4.08437
    y_5        c_3385     1
    y_5        capacity   1.02109
    y_6        OBJ        -0.00524829
    y_6        c_3386     1
    y_6        capacity   0.00131207
    y_7        OBJ        -2.05991
    y_7        c_3387     1
    y_7        capacity   0.514978
    y_8        OBJ        -7.09328
    y_8        c_3388     1
    y_8        capacity   1.77332
    y_9        OBJ        -5.36356
    y_9        c_3389     1
    y_9        capacity   1.34089
    y_10       OBJ        -2.629
    y_10       c_3390     1
    y_10       capacity   0.657251
    y_11       OBJ        -0.687814
    y_11       c_3391     1
    y_11       capacity   0.171953
    y_12       OBJ        -7.55651
    y_12       c_3392     1
    y_12       capacity   1.88913
    y_13       OBJ        -4.2941
    y_13       c_3393     1
    y_13       capacity   1.07352
    y_14       OBJ        -6.4355
    y_14       c_3394     1
    y_14       capacity   1.60888
    y_15       OBJ        -7.58143
    y_15       c_3395     1
    y_15       capacity   1.89536
    y_16       OBJ        -4.00434
    y_16       c_3396     1
    y_16       capacity   1.00108
    y_17       OBJ        -7.85691
    y_17       c_3397     1
    y_17       capacity   1.96423
    y_18       OBJ        -7.05268
    y_18       c_3398     1
    y_18       capacity   1.76317
    y_19       OBJ        -5.37085
    y_19       c_3399     1
    y_19       capacity   1.34271
    MARKER    'MARKER'                 'INTEND'
RHS
    RHS       capacity   57.7737
    RHS       c_3380     1
    RHS       c_3381     1
    RHS       c_3382     1
    RHS       c_3383     1
    RHS       c_3384     1
    RHS       c_3385     1
    RHS       c_3386     1
    RHS       c_3387     1
    RHS       c_3388     1
    RHS       c_3389     1
    RHS       c_3390     1
    RHS       c_3391     1
    RHS       c_3392     1
    RHS       c_3393     1
    RHS       c_3394     1
    RHS       c_3395     1
    RHS       c_3396     1
    RHS       c_3397     1
    RHS       c_3398     1
    RHS       c_3399     1
BOUNDS
 LI BND       x_0        0
 UI BND       x_0        1
 LI BND       x_1        0
 UI BND       x_1        1
 LI BND       x_2        0
 UI BND       x_2        1
 LI BND       x_3        0
 UI BND       x_3        1
 LI BND       x_4        0
 UI BND       x_4        1
 LI BND       x_5        0
 UI BND       x_5        1
 LI BND       x_6        0
 UI BND       x_6        1
 LI BND       x_7        0
 UI BND       x_7        1
 LI BND       x_8        0
 UI BND       x_8        1
 LI BND       x_9        0
 UI BND       x_9        1
 LI BND       x_10       0
 UI BND       x_10       1
 LI BND       x_11       0
 UI BND       x_11       1
 LI BND       x_12       0
 UI BND       x_12       1
 LI BND       x_13       0
 UI BND       x_13       1
 LI BND       x_14       0
 UI BND       x_14       1
 LI BND       x_15       0
 UI BND       x_15       1
 LI BND       x_16       0
 UI BND       x_16       1
 LI BND       x_17       0
 UI BND       x_17       1
 LI BND       x_18       0
 UI BND       x_18       1
 LI BND       x_19       0
 UI BND       x_19       1
 LI BND       y_0        0
 UI BND       y_0        1
 LI BND       y_1        0
 UI BND       y_1        1
 LI BND       y_2        0
 UI BND       y_2        1
 LI BND       y_3        0
 UI BND       y_3        1
 LI BND       y_4        0
 UI BND       y_4        1
 LI BND       y_5        0
 UI BND       y_5        1
 LI BND       y_6        0
 UI BND       y_6        1
 LI BND       y_7        0
 UI BND       y_7        1
 LI BND       y_8        0
 UI BND       y_8        1
 LI BND       y_9        0
 UI BND       y_9        1
 LI BND       y_10       0
 UI BND       y_10       1
 LI BND       y_11       0
 UI BND       y_11       1
 LI BND       y_12       0
 UI BND       y_12       1
 LI BND       y_13       0
 UI BND       y_13       1
 LI BND       y_14       0
 UI BND       y_14       1
 LI BND       y_15       0
 UI BND       y_15       1
 LI BND       y_16       0
 UI BND       y_16       1
 LI BND       y_17       0
 UI BND       y_17       1
 LI BND       y_18       0
 UI BND       y_18       1
 LI BND       y_19       0
 UI BND       y_19       1
ENDATA
